c SAT Generator for power-law distributed variable frequencies
c -g u -v 20 -c 91 -k 3 -p 2.750000 -b 3.200000 -f /home/schmidt/Devel/ni-kop-sat/data/ensemble/ruf20-91/ruf20-91-606 -u 1 -U 1 -s 3671105282
p cnf 20 91
-4 -10 -13 0
10 -11 15 0
1 16 -20 0
5 6 15 0
-13 16 19 0
6 7 10 0
-14 -15 18 0
-1 -9 -20 0
10 -14 16 0
8 -12 18 0
-1 14 -18 0
11 13 18 0
-7 -8 12 0
-4 5 13 0
-1 9 -15 0
4 -7 -14 0
-4 -6 -17 0
-1 2 5 0
-2 -9 16 0
-4 5 10 0
-14 17 18 0
-8 17 19 0
4 -7 10 0
1 14 -17 0
-15 -16 -18 0
-5 -8 -20 0
-12 13 -16 0
16 17 20 0
4 9 15 0
-8 -9 -19 0
-9 -17 20 0
1 -15 17 0
8 -15 20 0
-9 -15 16 0
-5 13 -14 0
-12 13 17 0
1 2 -11 0
-5 8 -18 0
6 14 19 0
-1 -6 -7 0
1 10 -18 0
-1 -2 -7 0
-2 -11 -16 0
-7 -8 -12 0
-1 -5 20 0
4 9 -10 0
-4 13 19 0
-2 12 -17 0
-6 10 -16 0
-10 13 19 0
-6 13 -16 0
15 -19 -20 0
-3 13 -17 0
-2 18 -20 0
-4 9 -19 0
10 -14 -18 0
-5 -11 -12 0
2 5 -12 0
-6 12 -17 0
2 12 -13 0
1 12 20 0
3 -4 15 0
-8 16 19 0
-11 14 -16 0
-8 -13 -19 0
6 -7 -13 0
2 -8 19 0
7 -9 -12 0
7 -18 20 0
11 -15 17 0
1 11 -14 0
-8 9 20 0
-9 13 -18 0
-11 -16 19 0
-3 -7 -15 0
5 -6 18 0
-5 -9 11 0
1 16 -17 0
-6 -15 -17 0
5 11 18 0
-4 -10 -14 0
-3 -7 -14 0
5 -13 -14 0
-14 -15 19 0
7 9 -18 0
-10 -11 20 0
-5 6 -7 0
7 -14 -15 0
2 -12 -13 0
-7 12 13 0
-12 -13 -16 0
